WARNING: for repeatability, setting FPU to use double precision
============================[ Problem Statistics ]=============================
|                                                                             |
|  Number of variables:        120049                                         |
|  Number of clauses:         3661144                                         |
|  Parse time:                   1.26 s                                       |
|  Eliminated clauses:           0.02 Mb                                      |
|  Simplification time:          1.23 s                                       |
|                                                                             |
============================[ Search Statistics ]==============================
| Conflicts |          ORIGINAL         |          LEARNT          | Progress |
|           |    Vars  Clauses Literals |    Limit  Clauses Lit/Cl |          |
===============================================================================
|       100 |   10291   152401   329423 |    55880      100    213 | 89.428 % |
|       250 |   10291   152401   329423 |    61468      250    198 | 89.428 % |
|       475 |   10291   152401   329423 |    67615      475    244 | 89.428 % |
|       812 |   10291   152401   329423 |    74376      812    287 | 89.428 % |
|      1318 |   10291   152401   329423 |    81814     1318    293 | 89.428 % |
|      2077 |   10291   152401   329423 |    89995     2077    267 | 89.428 % |
|      3216 |   10291   152401   329423 |    98995     3216    301 | 89.428 % |
|      4924 |   10291   152401   329423 |   108895     4924    278 | 89.428 % |
|      7486 |   10291   152401   329423 |   119784     7486    296 | 89.428 % |
|     11330 |   10291   152401   329423 |   131762    11330    325 | 89.428 % |
|     17096 |   10291   152401   329423 |   144939    17096    323 | 89.428 % |
|     25745 |   10291   152401   329423 |   159433    25745    341 | 89.428 % |
|     38719 |   10291   152401   329423 |   175376    38719    354 | 89.428 % |
|     58180 |   10291   152401   329423 |   192914    58180    370 | 89.428 % |
|     87372 |   10291   152401   329423 |   212205    87372    369 | 89.428 % |
|    131161 |   10291   152401   329423 |   233426   131161    406 | 89.428 % |
|    196845 |   10291   152401   329423 |   256768   196845    419 | 89.428 % |
===============================================================================
restarts              : 603
conflicts             : 255454         (2989 /sec)
decisions             : 3029592        (0.00 % random) (35448 /sec)
propagations          : 111096800      (1299911 /sec)
conflict literals     : 113883487      (1.60 % deleted)
Memory used           : 735.00 MB
CPU time              : 85.4649 s

SATISFIABLE
